(set-logic SLIA)
(define-fun succ ((X Int) ) Int (+ 1 X ))
(define-fun pred ((X Int) ) Int (+ -1 X )) 
(define-fun firstidx ((X String) (Y String) ) Int (str.indexof X Y 1 )) 
(define-fun idxplus ((X String) (Y String) (P Int) (Q Int)) Int (+ (str.indexof X Y P) Q)) 
(define-fun idxminus ((X String) (Y String) (P Int) (Q Int)) Int (- (str.indexof X Y P) Q)) 
(define-fun getfirst ((X String)) String (str.substr X 0 1))
(define-fun getprefix ((X String) (Y Int)) String (str.substr X 0 Y))
(define-fun getsuffix ((X String) (Y Int)) String (str.substr X Y (str.len X)))
(define-fun getprefixone ((X String) (Y Int)) String (str.substr X 1 Y))
(define-fun doubleconcat ((X String) (Y String) (Z String)) String (str.++ (str.++ X Y) Z))
(define-fun sesuffix ((X String) (Y String) (P Int) (Q Int) (R Int)) String (str.substr X (+ (str.indexof X Y P) Q) R))
(define-fun lasuffix ((X String) (Y Int) (Z Int)) String (str.substr X (- Y 1) Z))
(define-fun subsconcat ((X String) (Y Int) (P Int) (Q Int)) String (str.++ (str.substr X 0 Y) (str.substr X P Q)))
(define-fun rpself ((X String) (Y String) (N Int) (M Int)) String (str.replace X (str.substr X N M) Y))
(define-fun doublerp ((X String) (Y String) (Z String) (P String) (Q String)) String (str.replace (str.replace X Y Z) P Q ))
(synth-fun f ((_arg_0 String) (_arg_1 String) (_arg_2 String)) String 
 ( (Start String (ntString)) 
 (ntString String (
	_arg_0 _arg_1 _arg_2 "" " " "/n"
	(getfirst ntString)
	(getprefixone ntString ntInt)
	(doubleconcat ntString ntString ntString)
	(subsconcat ntString ntInt ntInt ntInt)
	(rpself ntString ntString ntInt ntInt)
	(ite ntBool ntString ntString)
))
 (ntInt Int (
	1 0 -1
	(succ ntInt)
	(idxplus ntString ntString ntInt ntInt)
	(+ ntInt ntInt)
	(- ntInt ntInt)
	(str.len ntString)
	(str.to.int ntString)
	(ite ntBool ntInt ntInt)
	(str.indexof ntString ntString ntInt)
))
 (ntBool Bool (
	true false
	(= ntInt ntInt)
	(str.contains ntString ntString)
))
))
(constraint (= (f "Traci Brown" "1301 Robinson Court" "Saginaw, MI 48607") "Traci Brown/n1301 Robinson Court/nSaginaw, MI 48607"))
(constraint (= (f "Mary Hannan" "1195 Amethyst Drive" "Lansing, MI 48933") "Mary Hannan/n1195 Amethyst Drive/nLansing, MI 48933"))
(constraint (= (f "Linda Thomas" "2479 North Bend Road" "Allen, KY 41601") "Linda Thomas/n2479 North Bend Road/nAllen, KY 41601"))
(check-synth)
(define-fun f_1 ((_arg_0 String) (_arg_1 String) (_arg_2 String)) String (str.++ (str.++ (str.++ (str.++ _arg_0 "/n") _arg_1) "/n") _arg_2))
